DIMACS_lns/graph-1000-778.col
p edge 1000 1823
e 1 797
e 1 221
e 1 979
e 1 831
e 2 782
e 2 644
e 2 109
e 3 40
e 3 666
e 3 74
e 3 642
e 3 438
e 3 221
e 3 375
e 4 305
e 4 596
e 4 760
e 4 105
e 5 833
e 5 783
e 5 130
e 5 467
e 6 143
e 6 66
e 6 198
e 6 393
e 6 275
e 6 192
e 7 527
e 7 714
e 7 921
e 7 439
e 9 546
e 9 915
e 9 436
e 10 636
e 10 586
e 10 879
e 10 846
e 12 947
e 12 74
e 12 61
e 12 41
e 14 633
e 14 94
e 14 588
e 15 406
e 15 81
e 15 482
e 15 989
e 16 527
e 16 775
e 16 798
e 18 873
e 18 284
e 18 625
e 18 883
e 18 37
e 18 813
e 18 383
e 21 304
e 21 757
e 21 107
e 21 938
e 22 56
e 22 406
e 22 897
e 22 443
e 23 311
e 23 499
e 23 511
e 23 726
e 23 998
e 23 426
e 23 845
e 23 223
e 24 877
e 24 913
e 24 56
e 24 952
e 24 283
e 24 123
e 25 647
e 25 525
e 25 732
e 25 727
e 27 527
e 27 318
e 27 510
e 27 989
e 27 316
e 29 979
e 29 918
e 29 748
e 30 357
e 30 931
e 30 615
e 30 474
e 30 132
e 30 293
e 31 489
e 31 667
e 31 647
e 31 189
e 32 139
e 32 436
e 32 282
e 32 965
e 32 396
e 32 677
e 32 640
e 33 422
e 33 394
e 33 584
e 34 620
e 34 809
e 34 763
e 34 500
e 34 638
e 34 722
e 34 623
e 34 717
e 34 160
e 34 627
e 34 664
e 35 257
e 35 366
e 35 956
e 35 309
e 35 209
e 35 558
e 37 493
e 37 665
e 38 611
e 38 106
e 38 421
e 38 541
e 39 311
e 39 174
e 39 437
e 39 705
e 39 361
e 39 124
e 39 458
e 39 979
e 39 282
e 39 788
e 39 74
e 40 246
e 40 688
e 40 687
e 41 231
e 41 61
e 41 168
e 41 595
e 42 572
e 42 393
e 42 174
e 42 209
e 42 197
e 42 777
e 43 425
e 43 135
e 43 985
e 43 360
e 43 569
e 44 371
e 44 358
e 44 607
e 45 945
e 45 341
e 45 297
e 46 821
e 46 505
e 46 128
e 46 811
e 46 374
e 50 102
e 50 921
e 50 105
e 50 544
e 50 257
e 50 802
e 50 783
e 50 395
e 53 791
e 53 135
e 53 673
e 54 873
e 54 183
e 54 215
e 54 155
e 54 499
e 54 288
e 54 495
e 54 108
e 55 655
e 55 563
e 55 291
e 55 471
e 55 831
e 56 318
e 56 60
e 56 298
e 56 146
e 57 66
e 57 985
e 57 336
e 57 634
e 58 956
e 58 838
e 58 560
e 58 548
e 58 646
e 58 955
e 59 863
e 59 145
e 59 327
e 59 364
e 59 551
e 60 592
e 60 305
e 60 987
e 61 400
e 61 277
e 63 939
e 63 158
e 63 996
e 63 293
e 63 808
e 64 842
e 64 472
e 64 495
e 64 757
e 64 719
e 65 250
e 65 828
e 65 395
e 65 636
e 66 666
e 66 138
e 68 630
e 68 99
e 68 440
e 69 797
e 69 548
e 69 546
e 69 99
e 70 614
e 70 415
e 70 621
e 70 256
e 70 82
e 70 680
e 71 569
e 71 793
e 71 263
e 71 804
e 71 555
e 71 166
e 73 661
e 73 81
e 73 842
e 73 447
e 73 391
e 74 263
e 74 813
e 74 465
e 75 224
e 75 468
e 75 898
e 75 619
e 75 153
e 77 336
e 77 256
e 77 523
e 79 470
e 79 240
e 79 486
e 79 374
e 79 830
e 79 411
e 79 731
e 79 987
e 80 153
e 80 931
e 80 633
e 80 649
e 80 311
e 81 726
e 81 881
e 81 609
e 81 422
e 82 355
e 82 91
e 82 316
e 82 696
e 82 937
e 90 318
e 90 414
e 90 846
e 90 641
e 90 952
e 90 306
e 91 408
e 91 313
e 91 294
e 92 582
e 92 472
e 92 915
e 92 283
e 92 627
e 92 138
e 94 556
e 94 518
e 94 150
e 95 786
e 95 310
e 95 905
e 95 417
e 95 870
e 96 396
e 96 594
e 96 867
e 96 147
e 96 122
e 96 856
e 96 297
e 97 577
e 97 309
e 97 989
e 98 208
e 98 304
e 98 369
e 98 145
e 98 438
e 99 885
e 99 122
e 100 266
e 100 788
e 100 826
e 100 893
e 101 934
e 101 535
e 101 319
e 101 605
e 102 570
e 102 967
e 102 322
e 103 913
e 103 777
e 103 240
e 103 487
e 103 743
e 104 291
e 104 411
e 104 544
e 104 558
e 104 857
e 105 132
e 105 472
e 105 262
e 106 624
e 106 569
e 106 739
e 107 604
e 107 670
e 107 440
e 108 890
e 108 654
e 108 837
e 108 574
e 108 867
e 109 668
e 109 385
e 109 117
e 109 432
e 109 658
e 110 668
e 110 551
e 110 633
e 111 685
e 111 346
e 111 361
e 111 816
e 112 320
e 112 992
e 112 760
e 113 162
e 113 422
e 113 325
e 115 862
e 115 296
e 115 938
e 115 440
e 115 913
e 115 588
e 117 825
e 117 641
e 117 546
e 117 786
e 118 600
e 118 902
e 118 822
e 118 140
e 119 491
e 119 749
e 119 895
e 120 130
e 120 964
e 120 737
e 120 219
e 120 623
e 121 756
e 121 366
e 121 752
e 122 386
e 122 158
e 123 438
e 123 933
e 123 698
e 124 483
e 124 894
e 124 831
e 124 542
e 124 984
e 125 995
e 125 201
e 125 737
e 125 892
e 126 624
e 126 666
e 126 486
e 127 446
e 127 131
e 127 478
e 128 699
e 128 721
e 128 242
e 128 467
e 128 905
e 129 983
e 129 485
e 129 743
e 129 204
e 129 903
e 129 963
e 130 393
e 130 195
e 130 881
e 130 873
e 130 710
e 130 611
e 130 556
e 131 717
e 131 642
e 131 546
e 131 168
e 131 737
e 131 942
e 132 368
e 132 285
e 132 142
e 132 696
e 132 180
e 135 964
e 135 801
e 135 872
e 136 990
e 136 354
e 136 755
e 137 463
e 137 148
e 137 468
e 137 432
e 137 756
e 137 513
e 138 589
e 138 837
e 139 548
e 139 468
e 139 487
e 140 701
e 140 748
e 140 823
e 140 336
e 141 476
e 141 739
e 141 285
e 141 170
e 142 828
e 142 189
e 142 466
e 142 656
e 143 484
e 143 721
e 143 562
e 143 566
e 144 176
e 144 247
e 144 801
e 144 584
e 145 246
e 145 908
e 145 480
e 145 345
e 146 513
e 146 552
e 146 460
e 147 767
e 147 979
e 148 653
e 148 173
e 148 910
e 148 660
e 149 548
e 149 898
e 149 584
e 150 227
e 150 749
e 150 676
e 150 687
e 151 415
e 151 782
e 151 229
e 151 695
e 152 858
e 152 378
e 152 818
e 152 194
e 153 379
e 153 383
e 155 223
e 155 628
e 155 537
e 155 801
e 155 975
e 155 738
e 158 307
e 158 751
e 158 552
e 158 489
e 160 763
e 160 166
e 161 431
e 161 774
e 161 304
e 161 480
e 162 860
e 162 210
e 162 651
e 162 488
e 162 959
e 162 282
e 163 390
e 163 387
e 163 607
e 163 822
e 166 361
e 166 307
e 168 787
e 168 436
e 169 865
e 169 691
e 169 883
e 169 694
e 170 542
e 170 620
e 170 791
e 172 706
e 172 278
e 172 962
e 172 535
e 172 872
e 173 670
e 173 596
e 174 641
e 174 522
e 176 337
e 176 228
e 176 535
e 176 377
e 176 600
e 177 897
e 177 775
e 177 777
e 177 778
e 180 999
e 180 408
e 180 361
e 181 579
e 181 359
e 181 997
e 182 496
e 182 279
e 182 214
e 183 632
e 183 380
e 183 989
e 183 228
e 183 563
e 183 438
e 184 191
e 184 741
e 184 309
e 186 847
e 186 372
e 186 852
e 187 404
e 187 655
e 187 853
e 189 817
e 189 471
e 189 520
e 191 750
e 191 887
e 191 384
e 191 269
e 192 670
e 192 410
e 192 902
e 192 559
e 192 461
e 192 295
e 192 930
e 193 914
e 193 739
e 193 937
e 193 796
e 194 927
e 194 716
e 194 270
e 194 794
e 195 641
e 195 959
e 195 998
e 195 380
e 196 706
e 196 702
e 196 535
e 196 833
e 197 685
e 197 214
e 198 278
e 198 372
e 198 484
e 198 842
e 198 218
e 199 903
e 199 338
e 199 283
e 199 663
e 200 590
e 200 430
e 200 408
e 200 313
e 201 204
e 201 710
e 204 280
e 204 755
e 206 596
e 206 749
e 206 496
e 206 465
e 208 229
e 208 362
e 208 938
e 208 553
e 209 367
e 209 297
e 209 842
e 210 755
e 210 232
e 210 350
e 210 359
e 211 638
e 211 885
e 211 908
e 211 705
e 212 408
e 212 296
e 212 578
e 212 611
e 213 847
e 213 562
e 213 427
e 213 817
e 214 649
e 214 414
e 215 962
e 215 268
e 215 296
e 217 416
e 217 354
e 217 865
e 217 996
e 217 284
e 218 778
e 218 825
e 219 340
e 219 777
e 220 741
e 220 739
e 220 807
e 220 488
e 220 817
e 221 983
e 223 553
e 223 673
e 224 543
e 224 560
e 224 685
e 224 888
e 224 443
e 224 638
e 227 232
e 227 291
e 227 775
e 228 727
e 228 270
e 229 281
e 229 872
e 229 890
e 229 373
e 229 990
e 231 283
e 231 254
e 231 379
e 232 947
e 232 751
e 232 702
e 232 462
e 233 606
e 233 541
e 233 434
e 234 670
e 234 774
e 234 340
e 235 698
e 235 692
e 235 304
e 239 619
e 239 333
e 239 369
e 240 915
e 240 262
e 241 979
e 241 868
e 241 417
e 242 420
e 242 316
e 243 739
e 243 916
e 243 360
e 244 890
e 244 973
e 244 617
e 244 538
e 245 904
e 245 446
e 245 964
e 245 981
e 245 980
e 245 646
e 246 722
e 246 820
e 246 298
e 247 336
e 247 324
e 247 477
e 250 726
e 250 826
e 251 657
e 251 607
e 251 287
e 254 829
e 254 698
e 255 797
e 255 656
e 255 752
e 256 341
e 257 541
e 257 511
e 258 868
e 258 590
e 258 856
e 260 994
e 260 771
e 260 762
e 260 354
e 260 522
e 262 971
e 262 470
e 262 784
e 262 406
e 263 601
e 263 602
e 263 691
e 263 429
e 263 411
e 264 590
e 264 471
e 264 466
e 265 414
e 265 364
e 265 998
e 265 642
e 265 1000
e 266 556
e 266 927
e 266 482
e 266 870
e 266 387
e 266 371
e 267 782
e 267 796
e 267 984
e 267 503
e 267 802
e 268 796
e 268 780
e 268 441
e 268 795
e 269 789
e 269 327
e 270 447
e 271 648
e 271 721
e 271 501
e 271 706
e 271 541
e 271 615
e 272 341
e 272 907
e 272 988
e 275 946
e 275 485
e 275 665
e 275 629
e 275 458
e 275 640
e 277 876
e 277 732
e 277 889
e 278 618
e 279 795
e 279 375
e 279 948
e 279 399
e 280 380
e 280 736
e 281 719
e 281 766
e 281 780
e 281 847
e 281 484
e 281 582
e 282 980
e 282 792
e 282 691
e 282 669
e 282 622
e 282 551
e 283 634
e 283 633
e 284 962
e 284 756
e 284 620
e 284 998
e 285 458
e 285 771
e 287 887
e 287 699
e 287 576
e 288 615
e 288 722
e 288 337
e 288 617
e 290 641
e 290 994
e 290 989
e 290 503
e 290 857
e 291 789
e 293 472
e 294 511
e 294 814
e 294 413
e 295 325
e 295 410
e 296 938
e 297 579
e 298 571
e 298 931
e 298 542
e 298 535
e 304 921
e 304 764
e 305 486
e 305 930
e 305 441
e 305 312
e 306 803
e 306 996
e 307 394
e 307 588
e 307 981
e 307 686
e 307 493
e 307 544
e 310 620
e 310 863
e 310 926
e 310 585
e 311 690
e 312 752
e 312 609
e 312 663
e 312 399
e 312 706
e 313 629
e 313 453
e 313 528
e 316 904
e 316 927
e 316 727
e 316 964
e 317 793
e 317 473
e 317 896
e 318 510
e 318 370
e 318 857
e 318 618
e 319 999
e 319 655
e 319 443
e 319 910
e 320 809
e 320 765
e 320 904
e 320 517
e 321 537
e 321 825
e 321 765
e 322 801
e 322 975
e 322 759
e 322 984
e 324 513
e 324 678
e 324 710
e 324 544
e 324 842
e 325 545
e 327 978
e 327 676
e 328 357
e 328 859
e 328 668
e 328 893
e 329 370
e 329 406
e 329 898
e 329 731
e 332 750
e 332 715
e 332 808
e 332 585
e 332 966
e 333 833
e 333 495
e 333 742
e 334 554
e 334 585
e 334 340
e 336 812
e 336 350
e 336 885
e 336 948
e 336 702
e 336 755
e 337 538
e 337 570
e 337 379
e 337 399
e 337 821
e 338 817
e 338 784
e 338 877
e 338 494
e 339 479
e 339 390
e 339 817
e 339 759
e 340 1000
e 340 621
e 340 354
e 341 641
e 341 824
e 341 664
e 342 515
e 342 478
e 342 619
e 343 651
e 343 477
e 343 630
e 343 813
e 345 698
e 345 837
e 345 655
e 345 718
e 346 595
e 346 885
e 350 839
e 350 477
e 350 548
e 351 735
e 351 835
e 351 399
e 351 777
e 354 712
e 355 384
e 355 479
e 355 966
e 356 544
e 356 657
e 356 682
e 356 767
e 357 989
e 357 870
e 357 772
e 358 526
e 358 894
e 359 737
e 359 555
e 359 870
e 359 914
e 360 427
e 360 548
e 360 663
e 360 874
e 361 435
e 362 835
e 362 858
e 362 873
e 362 688
e 362 713
e 362 818
e 364 630
e 364 677
e 364 443
e 364 554
e 364 553
e 364 715
e 366 813
e 367 394
e 367 496
e 367 838
e 367 627
e 368 831
e 368 740
e 369 614
e 369 705
e 369 788
e 370 794
e 370 675
e 370 441
e 371 1000
e 371 503
e 371 390
e 371 674
e 372 913
e 372 596
e 372 600
e 373 771
e 373 381
e 373 606
e 373 441
e 374 934
e 375 456
e 375 737
e 376 489
e 376 772
e 376 472
e 377 769
e 377 473
e 378 583
e 378 554
e 378 976
e 378 501
e 379 579
e 379 539
e 379 821
e 380 797
e 381 510
e 381 987
e 381 933
e 381 699
e 383 543
e 383 448
e 383 715
e 383 682
e 383 905
e 383 865
e 383 634
e 384 763
e 385 877
e 385 997
e 385 759
e 385 715
e 386 559
e 386 722
e 386 685
e 386 727
e 386 535
e 386 767
e 387 773
e 387 860
e 387 551
e 387 845
e 387 660
e 389 740
e 389 731
e 389 495
e 389 667
e 389 577
e 390 591
e 391 740
e 391 719
e 391 852
e 391 640
e 393 538
e 393 649
e 393 656
e 394 444
e 394 732
e 394 595
e 394 512
e 394 811
e 395 491
e 396 993
e 396 680
e 397 940
e 397 465
e 397 695
e 399 727
e 399 437
e 399 441
e 400 412
e 400 437
e 400 701
e 401 897
e 401 717
e 401 815
e 404 513
e 404 918
e 404 591
e 406 448
e 406 740
e 408 662
e 408 578
e 408 705
e 410 614
e 410 750
e 410 742
e 410 564
e 411 965
e 412 467
e 412 726
e 413 721
e 413 926
e 413 595
e 413 870
e 414 738
e 415 903
e 415 441
e 415 695
e 416 750
e 416 915
e 417 664
e 417 716
e 417 823
e 417 862
e 420 712
e 420 487
e 420 634
e 420 824
e 421 736
e 421 617
e 421 819
e 421 837
e 422 432
e 422 883
e 424 940
e 424 992
e 424 437
e 425 909
e 425 563
e 425 710
e 425 855
e 425 802
e 426 754
e 426 939
e 427 860
e 429 883
e 429 855
e 429 731
e 430 444
e 430 473
e 430 773
e 431 614
e 431 769
e 432 592
e 432 923
e 432 545
e 434 539
e 434 813
e 434 504
e 435 770
e 435 523
e 436 490
e 436 845
e 438 793
e 439 739
e 439 773
e 439 469
e 439 829
e 439 660
e 439 524
e 441 741
e 441 939
e 441 838
e 441 912
e 441 835
e 443 541
e 443 708
e 443 839
e 444 764
e 444 931
e 444 501
e 444 1000
e 444 903
e 444 520
e 445 847
e 445 708
e 445 855
e 445 748
e 446 484
e 446 469
e 447 470
e 447 482
e 448 973
e 448 738
e 448 562
e 448 622
e 453 916
e 453 688
e 453 936
e 456 460
e 456 741
e 457 939
e 457 564
e 457 816
e 457 548
e 459 909
e 459 989
e 459 804
e 460 724
e 460 656
e 461 590
e 461 819
e 461 778
e 461 879
e 462 945
e 462 564
e 463 631
e 463 570
e 463 804
e 463 473
e 463 801
e 463 586
e 463 809
e 463 940
e 465 993
e 465 742
e 466 750
e 466 565
e 466 713
e 466 592
e 467 897
e 467 980
e 467 971
e 467 553
e 468 882
e 469 981
e 469 989
e 469 973
e 469 636
e 469 633
e 470 574
e 470 975
e 470 754
e 470 938
e 470 999
e 471 661
e 472 770
e 472 753
e 472 959
e 473 976
e 473 993
e 473 881
e 474 997
e 474 981
e 476 980
e 476 673
e 476 884
e 476 998
e 476 640
e 476 666
e 476 823
e 477 832
e 477 606
e 478 866
e 478 564
e 479 916
e 479 872
e 480 791
e 480 555
e 481 641
e 481 518
e 481 894
e 481 647
e 481 958
e 481 757
e 482 803
e 482 788
e 482 853
e 482 513
e 483 889
e 483 623
e 485 839
e 485 623
e 485 554
e 486 818
e 486 884
e 486 823
e 487 829
e 488 887
e 488 577
e 489 772
e 489 741
e 489 944
e 490 819
e 490 781
e 491 884
e 491 763
e 493 766
e 493 747
e 494 510
e 494 959
e 494 615
e 494 694
e 495 866
e 495 760
e 496 559
e 499 736
e 499 947
e 499 576
e 499 579
e 500 795
e 500 505
e 501 983
e 501 677
e 501 558
e 502 830
e 502 740
e 502 892
e 503 730
e 503 555
e 503 545
e 504 754
e 504 647
e 505 992
e 505 762
e 510 862
e 510 777
e 510 834
e 510 538
e 511 903
e 511 940
e 511 887
e 511 888
e 512 881
e 512 942
e 512 888
e 512 968
e 512 662
e 513 807
e 513 858
e 513 726
e 514 719
e 514 784
e 514 965
e 514 809
e 514 707
e 515 934
e 515 667
e 515 952
e 516 997
e 516 710
e 516 934
e 516 633
e 516 678
e 517 609
e 517 556
e 517 879
e 517 792
e 517 859
e 518 651
e 520 596
e 520 718
e 520 654
e 520 566
e 521 843
e 521 629
e 521 910
e 521 923
e 522 981
e 522 722
e 522 774
e 523 750
e 524 653
e 524 537
e 524 863
e 525 662
e 525 658
e 525 984
e 526 829
e 526 719
e 527 753
e 527 555
e 528 975
e 528 740
e 531 755
e 531 539
e 531 846
e 535 772
e 538 895
e 538 990
e 538 877
e 539 825
e 539 966
e 539 583
e 541 701
e 541 604
e 541 832
e 542 673
e 543 847
e 543 565
e 543 642
e 543 922
e 544 823
e 544 939
e 544 740
e 546 908
e 546 689
e 546 755
e 548 619
e 548 670
e 551 566
e 552 688
e 552 852
e 552 934
e 552 661
e 552 726
e 553 680
e 553 883
e 555 978
e 556 868
e 556 771
e 558 988
e 558 692
e 558 958
e 558 876
e 559 996
e 560 807
e 560 572
e 562 578
e 562 689
e 562 873
e 563 586
e 563 792
e 564 821
e 565 644
e 565 751
e 565 881
e 566 646
e 568 636
e 568 762
e 568 755
e 568 834
e 568 1000
e 570 686
e 570 682
e 571 933
e 571 755
e 571 633
e 571 574
e 572 718
e 572 876
e 574 811
e 576 853
e 578 772
e 578 582
e 579 788
e 579 784
e 580 989
e 580 797
e 580 925
e 582 690
e 583 821
e 583 708
e 583 948
e 583 632
e 584 999
e 584 757
e 584 802
e 585 624
e 585 927
e 585 858
e 588 656
e 588 699
e 589 896
e 589 963
e 589 655
e 590 777
e 591 927
e 592 623
e 594 772
e 594 872
e 594 813
e 595 614
e 600 665
e 600 808
e 600 857
e 601 706
e 601 642
e 602 783
e 602 944
e 602 892
e 602 660
e 602 652
e 604 890
e 604 868
e 604 739
e 605 702
e 605 784
e 607 615
e 607 905
e 607 812
e 609 947
e 609 646
e 615 644
e 617 902
e 618 882
e 619 826
e 620 622
e 621 926
e 621 940
e 622 863
e 622 955
e 622 689
e 622 634
e 622 660
e 623 663
e 623 657
e 623 757
e 624 996
e 624 630
e 625 751
e 625 695
e 627 855
e 628 663
e 628 784
e 628 847
e 629 908
e 631 975
e 631 750
e 632 735
e 632 759
e 632 885
e 633 738
e 633 730
e 634 665
e 636 714
e 640 654
e 640 740
e 641 843
e 642 755
e 642 829
e 643 742
e 643 747
e 643 905
e 644 718
e 646 902
e 646 691
e 647 743
e 647 809
e 648 735
e 648 927
e 649 930
e 650 870
e 650 981
e 650 939
e 652 690
e 652 815
e 653 988
e 654 656
e 654 685
e 654 896
e 654 666
e 654 766
e 655 690
e 656 769
e 657 675
e 658 824
e 660 890
e 660 946
e 660 995
e 661 989
e 661 921
e 661 988
e 662 936
e 662 812
e 664 898
e 665 762
e 665 773
e 666 866
e 666 928
e 666 887
e 668 938
e 669 976
e 669 764
e 670 971
e 670 771
e 673 773
e 674 856
e 674 764
e 675 885
e 676 808
e 678 845
e 678 823
e 678 839
e 682 944
e 682 973
e 686 740
e 686 795
e 686 942
e 687 774
e 688 998
e 690 763
e 691 751
e 692 748
e 692 702
e 694 738
e 694 914
e 695 755
e 696 909
e 696 807
e 696 797
e 699 820
e 702 811
e 705 936
e 705 933
e 706 828
e 707 816
e 707 774
e 710 801
e 712 774
e 713 978
e 713 952
e 714 753
e 714 990
e 715 887
e 715 912
e 716 956
e 721 922
e 724 818
e 724 817
e 726 867
e 726 994
e 727 980
e 730 815
e 731 909
e 731 918
e 732 952
e 732 981
e 735 802
e 736 838
e 736 992
e 736 985
e 737 980
e 737 749
e 738 967
e 738 963
e 738 865
e 740 838
e 741 938
e 742 874
e 747 907
e 748 798
e 748 898
e 748 942
e 749 755
e 749 909
e 750 801
e 751 860
e 751 989
e 751 877
e 751 946
e 754 999
e 755 780
e 756 843
e 756 823
e 757 874
e 760 814
e 763 989
e 764 859
e 765 918
e 766 938
e 766 847
e 767 846
e 770 925
e 771 897
e 771 918
e 773 997
e 774 867
e 774 830
e 777 922
e 778 808
e 780 936
e 781 782
e 781 980
e 782 937
e 784 808
e 784 993
e 786 792
e 786 820
e 787 826
e 787 995
e 788 979
e 788 843
e 789 797
e 791 814
e 794 928
e 795 832
e 796 918
e 796 830
e 797 831
e 798 984
e 801 815
e 803 927
e 803 842
e 804 996
e 809 939
e 809 988
e 812 985
e 812 870
e 812 822
e 813 825
e 813 984
e 814 966
e 814 865
e 815 856
e 817 839
e 817 912
e 819 821
e 824 865
e 826 852
e 826 828
e 828 853
e 829 832
e 829 966
e 831 853
e 832 858
e 832 883
e 834 923
e 834 955
e 835 937
e 838 866
e 842 946
e 845 907
e 852 940
e 855 867
e 858 934
e 859 889
e 862 967
e 863 987
e 863 916
e 866 934
e 867 925
e 881 895
e 882 898
e 882 893
e 887 928
e 888 959
e 896 912
e 897 903
e 898 928
e 904 992
e 905 948
e 912 968
e 916 923
e 918 936
e 928 992
e 930 973
e 940 975
e 940 947
e 945 958
e 945 963
e 946 964
e 967 968
