txt_Ins/graph-1000-778.txt
n 1000
e 0 796
e 0 220
e 0 978
e 0 830
e 1 781
e 1 643
e 1 108
e 2 39
e 2 665
e 2 73
e 2 641
e 2 437
e 2 220
e 2 374
e 3 304
e 3 595
e 3 759
e 3 104
e 4 832
e 4 782
e 4 129
e 4 466
e 5 142
e 5 65
e 5 197
e 5 392
e 5 274
e 5 191
e 6 526
e 6 713
e 6 920
e 6 438
e 8 545
e 8 914
e 8 435
e 9 635
e 9 585
e 9 878
e 9 845
e 11 946
e 11 73
e 11 60
e 11 40
e 13 632
e 13 93
e 13 587
e 14 405
e 14 80
e 14 481
e 14 988
e 15 526
e 15 774
e 15 797
e 17 872
e 17 283
e 17 624
e 17 882
e 17 36
e 17 812
e 17 382
e 20 303
e 20 756
e 20 106
e 20 937
e 21 55
e 21 405
e 21 896
e 21 442
e 22 310
e 22 498
e 22 510
e 22 725
e 22 997
e 22 425
e 22 844
e 22 222
e 23 876
e 23 912
e 23 55
e 23 951
e 23 282
e 23 122
e 24 646
e 24 524
e 24 731
e 24 726
e 26 526
e 26 317
e 26 509
e 26 988
e 26 315
e 28 978
e 28 917
e 28 747
e 29 356
e 29 930
e 29 614
e 29 473
e 29 131
e 29 292
e 30 488
e 30 666
e 30 646
e 30 188
e 31 138
e 31 435
e 31 281
e 31 964
e 31 395
e 31 676
e 31 639
e 32 421
e 32 393
e 32 583
e 33 619
e 33 808
e 33 762
e 33 499
e 33 637
e 33 721
e 33 622
e 33 716
e 33 159
e 33 626
e 33 663
e 34 256
e 34 365
e 34 955
e 34 308
e 34 208
e 34 557
e 36 492
e 36 664
e 37 610
e 37 105
e 37 420
e 37 540
e 38 310
e 38 173
e 38 436
e 38 704
e 38 360
e 38 123
e 38 457
e 38 978
e 38 281
e 38 787
e 38 73
e 39 245
e 39 687
e 39 686
e 40 230
e 40 60
e 40 167
e 40 594
e 41 571
e 41 392
e 41 173
e 41 208
e 41 196
e 41 776
e 42 424
e 42 134
e 42 984
e 42 359
e 42 568
e 43 370
e 43 357
e 43 606
e 44 944
e 44 340
e 44 296
e 45 820
e 45 504
e 45 127
e 45 810
e 45 373
e 49 101
e 49 920
e 49 104
e 49 543
e 49 256
e 49 801
e 49 782
e 49 394
e 52 790
e 52 134
e 52 672
e 53 872
e 53 182
e 53 214
e 53 154
e 53 498
e 53 287
e 53 494
e 53 107
e 54 654
e 54 562
e 54 290
e 54 470
e 54 830
e 55 317
e 55 59
e 55 297
e 55 145
e 56 65
e 56 984
e 56 335
e 56 633
e 57 955
e 57 837
e 57 559
e 57 547
e 57 645
e 57 954
e 58 862
e 58 144
e 58 326
e 58 363
e 58 550
e 59 591
e 59 304
e 59 986
e 60 399
e 60 276
e 62 938
e 62 157
e 62 995
e 62 292
e 62 807
e 63 841
e 63 471
e 63 494
e 63 756
e 63 718
e 64 249
e 64 827
e 64 394
e 64 635
e 65 665
e 65 137
e 67 629
e 67 98
e 67 439
e 68 796
e 68 547
e 68 545
e 68 98
e 69 613
e 69 414
e 69 620
e 69 255
e 69 81
e 69 679
e 70 568
e 70 792
e 70 262
e 70 803
e 70 554
e 70 165
e 72 660
e 72 80
e 72 841
e 72 446
e 72 390
e 73 262
e 73 812
e 73 464
e 74 223
e 74 467
e 74 897
e 74 618
e 74 152
e 76 335
e 76 255
e 76 522
e 78 469
e 78 239
e 78 485
e 78 373
e 78 829
e 78 410
e 78 730
e 78 986
e 79 152
e 79 930
e 79 632
e 79 648
e 79 310
e 80 725
e 80 880
e 80 608
e 80 421
e 81 354
e 81 90
e 81 315
e 81 695
e 81 936
e 89 317
e 89 413
e 89 845
e 89 640
e 89 951
e 89 305
e 90 407
e 90 312
e 90 293
e 91 581
e 91 471
e 91 914
e 91 282
e 91 626
e 91 137
e 93 555
e 93 517
e 93 149
e 94 785
e 94 309
e 94 904
e 94 416
e 94 869
e 95 395
e 95 593
e 95 866
e 95 146
e 95 121
e 95 855
e 95 296
e 96 576
e 96 308
e 96 988
e 97 207
e 97 303
e 97 368
e 97 144
e 97 437
e 98 884
e 98 121
e 99 265
e 99 787
e 99 825
e 99 892
e 100 933
e 100 534
e 100 318
e 100 604
e 101 569
e 101 966
e 101 321
e 102 912
e 102 776
e 102 239
e 102 486
e 102 742
e 103 290
e 103 410
e 103 543
e 103 557
e 103 856
e 104 131
e 104 471
e 104 261
e 105 623
e 105 568
e 105 738
e 106 603
e 106 669
e 106 439
e 107 889
e 107 653
e 107 836
e 107 573
e 107 866
e 108 667
e 108 384
e 108 116
e 108 431
e 108 657
e 109 667
e 109 550
e 109 632
e 110 684
e 110 345
e 110 360
e 110 815
e 111 319
e 111 991
e 111 759
e 112 161
e 112 421
e 112 324
e 114 861
e 114 295
e 114 937
e 114 439
e 114 912
e 114 587
e 116 824
e 116 640
e 116 545
e 116 785
e 117 599
e 117 901
e 117 821
e 117 139
e 118 490
e 118 748
e 118 894
e 119 129
e 119 963
e 119 736
e 119 218
e 119 622
e 120 755
e 120 365
e 120 751
e 121 385
e 121 157
e 122 437
e 122 932
e 122 697
e 123 482
e 123 893
e 123 830
e 123 541
e 123 983
e 124 994
e 124 200
e 124 736
e 124 891
e 125 623
e 125 665
e 125 485
e 126 445
e 126 130
e 126 477
e 127 698
e 127 720
e 127 241
e 127 466
e 127 904
e 128 982
e 128 484
e 128 742
e 128 203
e 128 902
e 128 962
e 129 392
e 129 194
e 129 880
e 129 872
e 129 709
e 129 610
e 129 555
e 130 716
e 130 641
e 130 545
e 130 167
e 130 736
e 130 941
e 131 367
e 131 284
e 131 141
e 131 695
e 131 179
e 134 963
e 134 800
e 134 871
e 135 989
e 135 353
e 135 754
e 136 462
e 136 147
e 136 467
e 136 431
e 136 755
e 136 512
e 137 588
e 137 836
e 138 547
e 138 467
e 138 486
e 139 700
e 139 747
e 139 822
e 139 335
e 140 475
e 140 738
e 140 284
e 140 169
e 141 827
e 141 188
e 141 465
e 141 655
e 142 483
e 142 720
e 142 561
e 142 565
e 143 175
e 143 246
e 143 800
e 143 583
e 144 245
e 144 907
e 144 479
e 144 344
e 145 512
e 145 551
e 145 459
e 146 766
e 146 978
e 147 652
e 147 172
e 147 909
e 147 659
e 148 547
e 148 897
e 148 583
e 149 226
e 149 748
e 149 675
e 149 686
e 150 414
e 150 781
e 150 228
e 150 694
e 151 857
e 151 377
e 151 817
e 151 193
e 152 378
e 152 382
e 154 222
e 154 627
e 154 536
e 154 800
e 154 974
e 154 737
e 157 306
e 157 750
e 157 551
e 157 488
e 159 762
e 159 165
e 160 430
e 160 773
e 160 303
e 160 479
e 161 859
e 161 209
e 161 650
e 161 487
e 161 958
e 161 281
e 162 389
e 162 386
e 162 606
e 162 821
e 165 360
e 165 306
e 167 786
e 167 435
e 168 864
e 168 690
e 168 882
e 168 693
e 169 541
e 169 619
e 169 790
e 171 705
e 171 277
e 171 961
e 171 534
e 171 871
e 172 669
e 172 595
e 173 640
e 173 521
e 175 336
e 175 227
e 175 534
e 175 376
e 175 599
e 176 896
e 176 774
e 176 776
e 176 777
e 179 998
e 179 407
e 179 360
e 180 578
e 180 358
e 180 996
e 181 495
e 181 278
e 181 213
e 182 631
e 182 379
e 182 988
e 182 227
e 182 562
e 182 437
e 183 190
e 183 740
e 183 308
e 185 846
e 185 371
e 185 851
e 186 403
e 186 654
e 186 852
e 188 816
e 188 470
e 188 519
e 190 749
e 190 886
e 190 383
e 190 268
e 191 669
e 191 409
e 191 901
e 191 558
e 191 460
e 191 294
e 191 929
e 192 913
e 192 738
e 192 936
e 192 795
e 193 926
e 193 715
e 193 269
e 193 793
e 194 640
e 194 958
e 194 997
e 194 379
e 195 705
e 195 701
e 195 534
e 195 832
e 196 684
e 196 213
e 197 277
e 197 371
e 197 483
e 197 841
e 197 217
e 198 902
e 198 337
e 198 282
e 198 662
e 199 589
e 199 429
e 199 407
e 199 312
e 200 203
e 200 709
e 203 279
e 203 754
e 205 595
e 205 748
e 205 495
e 205 464
e 207 228
e 207 361
e 207 937
e 207 552
e 208 366
e 208 296
e 208 841
e 209 754
e 209 231
e 209 349
e 209 358
e 210 637
e 210 884
e 210 907
e 210 704
e 211 407
e 211 295
e 211 577
e 211 610
e 212 846
e 212 561
e 212 426
e 212 816
e 213 648
e 213 413
e 214 961
e 214 267
e 214 295
e 216 415
e 216 353
e 216 864
e 216 995
e 216 283
e 217 777
e 217 824
e 218 339
e 218 776
e 219 740
e 219 738
e 219 806
e 219 487
e 219 816
e 220 982
e 222 552
e 222 672
e 223 542
e 223 559
e 223 684
e 223 887
e 223 442
e 223 637
e 226 231
e 226 290
e 226 774
e 227 726
e 227 269
e 228 280
e 228 871
e 228 889
e 228 372
e 228 989
e 230 282
e 230 253
e 230 378
e 231 946
e 231 750
e 231 701
e 231 461
e 232 605
e 232 540
e 232 433
e 233 669
e 233 773
e 233 339
e 234 697
e 234 691
e 234 303
e 238 618
e 238 332
e 238 368
e 239 914
e 239 261
e 240 978
e 240 867
e 240 416
e 241 419
e 241 315
e 242 738
e 242 915
e 242 359
e 243 889
e 243 972
e 243 616
e 243 537
e 244 903
e 244 445
e 244 963
e 244 980
e 244 979
e 244 645
e 245 721
e 245 819
e 245 297
e 246 335
e 246 323
e 246 476
e 249 725
e 249 825
e 250 656
e 250 606
e 250 286
e 253 828
e 253 697
e 254 796
e 254 655
e 254 751
e 255 340
e 256 540
e 256 510
e 257 867
e 257 589
e 257 855
e 259 993
e 259 770
e 259 761
e 259 353
e 259 521
e 261 970
e 261 469
e 261 783
e 261 405
e 262 600
e 262 601
e 262 690
e 262 428
e 262 410
e 263 589
e 263 470
e 263 465
e 264 413
e 264 363
e 264 997
e 264 641
e 264 999
e 265 555
e 265 926
e 265 481
e 265 869
e 265 386
e 265 370
e 266 781
e 266 795
e 266 983
e 266 502
e 266 801
e 267 795
e 267 779
e 267 440
e 267 794
e 268 788
e 268 326
e 269 446
e 270 647
e 270 720
e 270 500
e 270 705
e 270 540
e 270 614
e 271 340
e 271 906
e 271 987
e 274 945
e 274 484
e 274 664
e 274 628
e 274 457
e 274 639
e 276 875
e 276 731
e 276 888
e 277 617
e 278 794
e 278 374
e 278 947
e 278 398
e 279 379
e 279 735
e 280 718
e 280 765
e 280 779
e 280 846
e 280 483
e 280 581
e 281 979
e 281 791
e 281 690
e 281 668
e 281 621
e 281 550
e 282 633
e 282 632
e 283 961
e 283 755
e 283 619
e 283 997
e 284 457
e 284 770
e 286 886
e 286 698
e 286 575
e 287 614
e 287 721
e 287 336
e 287 616
e 289 640
e 289 993
e 289 988
e 289 502
e 289 856
e 290 788
e 292 471
e 293 510
e 293 813
e 293 412
e 294 324
e 294 409
e 295 937
e 296 578
e 297 570
e 297 930
e 297 541
e 297 534
e 303 920
e 303 763
e 304 485
e 304 929
e 304 440
e 304 311
e 305 802
e 305 995
e 306 393
e 306 587
e 306 980
e 306 685
e 306 492
e 306 543
e 309 619
e 309 862
e 309 925
e 309 584
e 310 689
e 311 751
e 311 608
e 311 662
e 311 398
e 311 705
e 312 628
e 312 452
e 312 527
e 315 903
e 315 926
e 315 726
e 315 963
e 316 792
e 316 472
e 316 895
e 317 509
e 317 369
e 317 856
e 317 617
e 318 998
e 318 654
e 318 442
e 318 909
e 319 808
e 319 764
e 319 903
e 319 516
e 320 536
e 320 824
e 320 764
e 321 800
e 321 974
e 321 758
e 321 983
e 323 512
e 323 677
e 323 709
e 323 543
e 323 841
e 324 544
e 326 977
e 326 675
e 327 356
e 327 858
e 327 667
e 327 892
e 328 369
e 328 405
e 328 897
e 328 730
e 331 749
e 331 714
e 331 807
e 331 584
e 331 965
e 332 832
e 332 494
e 332 741
e 333 553
e 333 584
e 333 339
e 335 811
e 335 349
e 335 884
e 335 947
e 335 701
e 335 754
e 336 537
e 336 569
e 336 378
e 336 398
e 336 820
e 337 816
e 337 783
e 337 876
e 337 493
e 338 478
e 338 389
e 338 816
e 338 758
e 339 999
e 339 620
e 339 353
e 340 640
e 340 823
e 340 663
e 341 514
e 341 477
e 341 618
e 342 650
e 342 476
e 342 629
e 342 812
e 344 697
e 344 836
e 344 654
e 344 717
e 345 594
e 345 884
e 349 838
e 349 476
e 349 547
e 350 734
e 350 834
e 350 398
e 350 776
e 353 711
e 354 383
e 354 478
e 354 965
e 355 543
e 355 656
e 355 681
e 355 766
e 356 988
e 356 869
e 356 771
e 357 525
e 357 893
e 358 736
e 358 554
e 358 869
e 358 913
e 359 426
e 359 547
e 359 662
e 359 873
e 360 434
e 361 834
e 361 857
e 361 872
e 361 687
e 361 712
e 361 817
e 363 629
e 363 676
e 363 442
e 363 553
e 363 552
e 363 714
e 365 812
e 366 393
e 366 495
e 366 837
e 366 626
e 367 830
e 367 739
e 368 613
e 368 704
e 368 787
e 369 793
e 369 674
e 369 440
e 370 999
e 370 502
e 370 389
e 370 673
e 371 912
e 371 595
e 371 599
e 372 770
e 372 380
e 372 605
e 372 440
e 373 933
e 374 455
e 374 736
e 375 488
e 375 771
e 375 471
e 376 768
e 376 472
e 377 582
e 377 553
e 377 975
e 377 500
e 378 578
e 378 538
e 378 820
e 379 796
e 380 509
e 380 986
e 380 932
e 380 698
e 382 542
e 382 447
e 382 714
e 382 681
e 382 904
e 382 864
e 382 633
e 383 762
e 384 876
e 384 996
e 384 758
e 384 714
e 385 558
e 385 721
e 385 684
e 385 726
e 385 534
e 385 766
e 386 772
e 386 859
e 386 550
e 386 844
e 386 659
e 388 739
e 388 730
e 388 494
e 388 666
e 388 576
e 389 590
e 390 739
e 390 718
e 390 851
e 390 639
e 392 537
e 392 648
e 392 655
e 393 443
e 393 731
e 393 594
e 393 511
e 393 810
e 394 490
e 395 992
e 395 679
e 396 939
e 396 464
e 396 694
e 398 726
e 398 436
e 398 440
e 399 411
e 399 436
e 399 700
e 400 896
e 400 716
e 400 814
e 403 512
e 403 917
e 403 590
e 405 447
e 405 739
e 407 661
e 407 577
e 407 704
e 409 613
e 409 749
e 409 741
e 409 563
e 410 964
e 411 466
e 411 725
e 412 720
e 412 925
e 412 594
e 412 869
e 413 737
e 414 902
e 414 440
e 414 694
e 415 749
e 415 914
e 416 663
e 416 715
e 416 822
e 416 861
e 419 711
e 419 486
e 419 633
e 419 823
e 420 735
e 420 616
e 420 818
e 420 836
e 421 431
e 421 882
e 423 939
e 423 991
e 423 436
e 424 908
e 424 562
e 424 709
e 424 854
e 424 801
e 425 753
e 425 938
e 426 859
e 428 882
e 428 854
e 428 730
e 429 443
e 429 472
e 429 772
e 430 613
e 430 768
e 431 591
e 431 922
e 431 544
e 433 538
e 433 812
e 433 503
e 434 769
e 434 522
e 435 489
e 435 844
e 437 792
e 438 738
e 438 772
e 438 468
e 438 828
e 438 659
e 438 523
e 440 740
e 440 938
e 440 837
e 440 911
e 440 834
e 442 540
e 442 707
e 442 838
e 443 763
e 443 930
e 443 500
e 443 999
e 443 902
e 443 519
e 444 846
e 444 707
e 444 854
e 444 747
e 445 483
e 445 468
e 446 469
e 446 481
e 447 972
e 447 737
e 447 561
e 447 621
e 452 915
e 452 687
e 452 935
e 455 459
e 455 740
e 456 938
e 456 563
e 456 815
e 456 547
e 458 908
e 458 988
e 458 803
e 459 723
e 459 655
e 460 589
e 460 818
e 460 777
e 460 878
e 461 944
e 461 563
e 462 630
e 462 569
e 462 803
e 462 472
e 462 800
e 462 585
e 462 808
e 462 939
e 464 992
e 464 741
e 465 749
e 465 564
e 465 712
e 465 591
e 466 896
e 466 979
e 466 970
e 466 552
e 467 881
e 468 980
e 468 988
e 468 972
e 468 635
e 468 632
e 469 573
e 469 974
e 469 753
e 469 937
e 469 998
e 470 660
e 471 769
e 471 752
e 471 958
e 472 975
e 472 992
e 472 880
e 473 996
e 473 980
e 475 979
e 475 672
e 475 883
e 475 997
e 475 639
e 475 665
e 475 822
e 476 831
e 476 605
e 477 865
e 477 563
e 478 915
e 478 871
e 479 790
e 479 554
e 480 640
e 480 517
e 480 893
e 480 646
e 480 957
e 480 756
e 481 802
e 481 787
e 481 852
e 481 512
e 482 888
e 482 622
e 484 838
e 484 622
e 484 553
e 485 817
e 485 883
e 485 822
e 486 828
e 487 886
e 487 576
e 488 771
e 488 740
e 488 943
e 489 818
e 489 780
e 490 883
e 490 762
e 492 765
e 492 746
e 493 509
e 493 958
e 493 614
e 493 693
e 494 865
e 494 759
e 495 558
e 498 735
e 498 946
e 498 575
e 498 578
e 499 794
e 499 504
e 500 982
e 500 676
e 500 557
e 501 829
e 501 739
e 501 891
e 502 729
e 502 554
e 502 544
e 503 753
e 503 646
e 504 991
e 504 761
e 509 861
e 509 776
e 509 833
e 509 537
e 510 902
e 510 939
e 510 886
e 510 887
e 511 880
e 511 941
e 511 887
e 511 967
e 511 661
e 512 806
e 512 857
e 512 725
e 513 718
e 513 783
e 513 964
e 513 808
e 513 706
e 514 933
e 514 666
e 514 951
e 515 996
e 515 709
e 515 933
e 515 632
e 515 677
e 516 608
e 516 555
e 516 878
e 516 791
e 516 858
e 517 650
e 519 595
e 519 717
e 519 653
e 519 565
e 520 842
e 520 628
e 520 909
e 520 922
e 521 980
e 521 721
e 521 773
e 522 749
e 523 652
e 523 536
e 523 862
e 524 661
e 524 657
e 524 983
e 525 828
e 525 718
e 526 752
e 526 554
e 527 974
e 527 739
e 530 754
e 530 538
e 530 845
e 534 771
e 537 894
e 537 989
e 537 876
e 538 824
e 538 965
e 538 582
e 540 700
e 540 603
e 540 831
e 541 672
e 542 846
e 542 564
e 542 641
e 542 921
e 543 822
e 543 938
e 543 739
e 545 907
e 545 688
e 545 754
e 547 618
e 547 669
e 550 565
e 551 687
e 551 851
e 551 933
e 551 660
e 551 725
e 552 679
e 552 882
e 554 977
e 555 867
e 555 770
e 557 987
e 557 691
e 557 957
e 557 875
e 558 995
e 559 806
e 559 571
e 561 577
e 561 688
e 561 872
e 562 585
e 562 791
e 563 820
e 564 643
e 564 750
e 564 880
e 565 645
e 567 635
e 567 761
e 567 754
e 567 833
e 567 999
e 569 685
e 569 681
e 570 932
e 570 754
e 570 632
e 570 573
e 571 717
e 571 875
e 573 810
e 575 852
e 577 771
e 577 581
e 578 787
e 578 783
e 579 988
e 579 796
e 579 924
e 581 689
e 582 820
e 582 707
e 582 947
e 582 631
e 583 998
e 583 756
e 583 801
e 584 623
e 584 926
e 584 857
e 587 655
e 587 698
e 588 895
e 588 962
e 588 654
e 589 776
e 590 926
e 591 622
e 593 771
e 593 871
e 593 812
e 594 613
e 599 664
e 599 807
e 599 856
e 600 705
e 600 641
e 601 782
e 601 943
e 601 891
e 601 659
e 601 651
e 603 889
e 603 867
e 603 738
e 604 701
e 604 783
e 606 614
e 606 904
e 606 811
e 608 946
e 608 645
e 614 643
e 616 901
e 617 881
e 618 825
e 619 621
e 620 925
e 620 939
e 621 862
e 621 954
e 621 688
e 621 633
e 621 659
e 622 662
e 622 656
e 622 756
e 623 995
e 623 629
e 624 750
e 624 694
e 626 854
e 627 662
e 627 783
e 627 846
e 628 907
e 630 974
e 630 749
e 631 734
e 631 758
e 631 884
e 632 737
e 632 729
e 633 664
e 635 713
e 639 653
e 639 739
e 640 842
e 641 754
e 641 828
e 642 741
e 642 746
e 642 904
e 643 717
e 645 901
e 645 690
e 646 742
e 646 808
e 647 734
e 647 926
e 648 929
e 649 869
e 649 980
e 649 938
e 651 689
e 651 814
e 652 987
e 653 655
e 653 684
e 653 895
e 653 665
e 653 765
e 654 689
e 655 768
e 656 674
e 657 823
e 659 889
e 659 945
e 659 994
e 660 988
e 660 920
e 660 987
e 661 935
e 661 811
e 663 897
e 664 761
e 664 772
e 665 865
e 665 927
e 665 886
e 667 937
e 668 975
e 668 763
e 669 970
e 669 770
e 672 772
e 673 855
e 673 763
e 674 884
e 675 807
e 677 844
e 677 822
e 677 838
e 681 943
e 681 972
e 685 739
e 685 794
e 685 941
e 686 773
e 687 997
e 689 762
e 690 750
e 691 747
e 691 701
e 693 737
e 693 913
e 694 754
e 695 908
e 695 806
e 695 796
e 698 819
e 701 810
e 704 935
e 704 932
e 705 827
e 706 815
e 706 773
e 709 800
e 711 773
e 712 977
e 712 951
e 713 752
e 713 989
e 714 886
e 714 911
e 715 955
e 720 921
e 723 817
e 723 816
e 725 866
e 725 993
e 726 979
e 729 814
e 730 908
e 730 917
e 731 951
e 731 980
e 734 801
e 735 837
e 735 991
e 735 984
e 736 979
e 736 748
e 737 966
e 737 962
e 737 864
e 739 837
e 740 937
e 741 873
e 746 906
e 747 797
e 747 897
e 747 941
e 748 754
e 748 908
e 749 800
e 750 859
e 750 988
e 750 876
e 750 945
e 753 998
e 754 779
e 755 842
e 755 822
e 756 873
e 759 813
e 762 988
e 763 858
e 764 917
e 765 937
e 765 846
e 766 845
e 769 924
e 770 896
e 770 917
e 772 996
e 773 866
e 773 829
e 776 921
e 777 807
e 779 935
e 780 781
e 780 979
e 781 936
e 783 807
e 783 992
e 785 791
e 785 819
e 786 825
e 786 994
e 787 978
e 787 842
e 788 796
e 790 813
e 793 927
e 794 831
e 795 917
e 795 829
e 796 830
e 797 983
e 800 814
e 802 926
e 802 841
e 803 995
e 808 938
e 808 987
e 811 984
e 811 869
e 811 821
e 812 824
e 812 983
e 813 965
e 813 864
e 814 855
e 816 838
e 816 911
e 818 820
e 823 864
e 825 851
e 825 827
e 827 852
e 828 831
e 828 965
e 830 852
e 831 857
e 831 882
e 833 922
e 833 954
e 834 936
e 837 865
e 841 945
e 844 906
e 851 939
e 854 866
e 857 933
e 858 888
e 861 966
e 862 986
e 862 915
e 865 933
e 866 924
e 880 894
e 881 897
e 881 892
e 886 927
e 887 958
e 895 911
e 896 902
e 897 927
e 903 991
e 904 947
e 911 967
e 915 922
e 917 935
e 927 991
e 929 972
e 939 974
e 939 946
e 944 957
e 944 962
e 945 963
e 966 967
